outputs/case_25.model.txt
fhc_name_usage_stopped = False
manager_or_staff_dismissed = False
direct_or_indirect_board_members = False
fhc_violation_flag = True
correction_issued = True
improvement_deadline_set = True
notification_to_economic_ministry_done = True
shares_disposed_within_deadline = False
other_necessary_measures_taken = False
license_revoked = False
director_or_supervisor_dismissed_or_suspended = True
resolution_revoked = False
max_board_members_allowed = 0
company_registration_changed = False
subsidiary_business_suspended = False
subsidiary_shares_disposed = False
penalty_measures = True
correction_ordered = True
director_supervisor_dismissal_notified = True
dissolution_and_liquidation_ordered = False
violation_occurred = True
penalty = False
license_revocation_requirements_met = False